--- Job ProductMix A.gms Start 04/20/20 11:46:51 30.3.0 rc5da09e WEX-WEI x86 64bit/MS Windows
--- GAMS Parameters defined
    Input C:\aguadix\GITHUB\SOC\1 Linear programming (LP)\1 ProductMix\ProductMix A\ProductMix A.gms
    PageSize 0
    ScrDir C:\aguadix\GITHUB\SOC\1 Linear programming (LP)\1 ProductMix\ProductMix A\225a\
    SysDir C:\GAMS\win64\30.3\
    LogOption 3
    ErrMsg 1
    ErrorLog 99
    IDE 1
    LstTitleLeftAligned 1
GAMS 30.3.0   Copyright (C) 1987-2020 GAMS Development. All rights reserved
Licensee: GAMS Demo license for ANTONIO MARIA GUADIX ESCOG200420|0002CO-GEN
          UNIVERSITY OF GRANADA, Spain                             DL007289
          aguadix@ugr.es, ANTONIO MARIA GUADIX ESCOBAR                     
          Demo license for demonstration and instructional purposes only
--- Starting compilation
--- ProductMix A.gms(28) 2 Mb
--- Starting execution: elapsed 0:00:00.000
--- Generating LP model ProductMix
--- ProductMix A.gms(28) 3 Mb
---   4 rows  3 columns  9 non-zeroes
--- Executing CPLEX: elapsed 0:00:00.021

IBM ILOG CPLEX   30.3.0 rc5da09e Released Mar 06, 2020 WEI x86 64bit/MS Window
*** This solver runs with a demo license. No commercial use.
Cplex 12.10.0.0

Reading data...
Starting Cplex...
Space for names approximately 0.00 Mb
Use option 'names no' to turn use of names off
Version identifier: 12.10.0.0 | 2019-11-26 | 843d4de2ae
CPXPARAM_Advance                                 0
CPXPARAM_Simplex_Display                         2
CPXPARAM_Threads                                 1
CPXPARAM_Parallel                                1
CPXPARAM_Simplex_Limits_Iterations               2000000000
CPXPARAM_TimeLimit                               1000
CPXPARAM_Tune_TimeLimit                          200
Tried aggregator 1 time.
LP Presolve eliminated 1 rows and 1 columns.
Reduced LP has 3 rows, 2 columns, and 6 nonzeros.
Presolve time = 0.00 sec. (0.00 ticks)

Iteration      Dual Objective            In Variable           Out Variable
     1  I            0.000000                     X2               R3 slack
     2              35.142857                     X1               R2 slack
     3              33.000000               R3 slack               R1 slack
LP status(1): optimal
Cplex Time: 0.00sec (det. 0.01 ticks)

Optimal solution found.
Objective :          33.000000

--- Restarting execution
--- ProductMix A.gms(28) 2 Mb
--- Reading solution for model ProductMix
*** Status: Normal completion
--- Job ProductMix A.gms Stop 04/20/20 11:46:51 elapsed 0:00:00.143
